(set-info :smt-lib-version 2.6)
(set-logic QF_S)
(set-info :source |
Generated by: Hung-En Wang, Tzung-Lin Tsai, Chun-Han Lin, Fang Yu, and Jie-Hong R. Jiang
Generated on: 2019-02-28
Generator: Stranger
Application: Security analysis of string manipulating web applications
Target solver: CVC4, Norn, Z3-str2
Publication:
Hung-En Wang, Tzung-Lin Tsai, Chun-Han Lin, Fang Yu, Jie-Hong R. Jiang:
String Analysis via Automata Manipulation with Logic Circuit Representation. CAV (1) 2016: 241-260.
|)
(set-info :license "https://creativecommons.org/licenses/by/4.0/")
(set-info :category "industrial")
(set-info :status unknown)

(declare-fun sigmaStar_0 () String)
(declare-fun sigmaStar_1 () String)
(declare-fun sigmaStar_2 () String)
(declare-fun sigmaStar_3 () String)
(declare-fun sigmaStar_4 () String)
(declare-fun sigmaStar_5 () String)
(declare-fun sigmaStar_6 () String)
(declare-fun sigmaStar_7 () String)
(declare-fun sigmaStar_8 () String)
(declare-fun sigmaStar_9 () String)
(declare-fun sigmaStar_10 () String)
(declare-fun sigmaStar_11 () String)
(declare-fun sigmaStar_12 () String)
(declare-fun literal_13 () String)
(declare-fun x_19 () String)
(declare-fun literal_14 () String)
(declare-fun x_20 () String)
(declare-fun literal_18 () String)
(declare-fun x_21 () String)
(declare-fun literal_15 () String)
(declare-fun x_23 () String)
(declare-fun literal_16 () String)
(declare-fun x_25 () String)
(declare-fun x_26 () String)
(declare-fun x_27 () String)
(declare-fun literal_17 () String)
(declare-fun x_28 () String)
(declare-fun x_30 () String)
(declare-fun x_31 () String)
(declare-fun x_33 () String)
(declare-fun x_34 () String)
(declare-fun literal_22 () String)
(declare-fun x_35 () String)
(declare-fun literal_24 () String)
(declare-fun x_40 () String)
(declare-fun x_39 () String)
(declare-fun x_42 () String)
(declare-fun literal_43 () String)
(declare-fun x_50 () String)
(declare-fun x_51 () String)
(declare-fun literal_52 () String)
(declare-fun x_54 () String)
(declare-fun literal_53 () String)
(declare-fun x_55 () String)
(declare-fun x_56 () String)
(declare-fun sigmaStar_63 () String)
(declare-fun literal_64 () String)
(declare-fun x_65 () String)
(declare-fun x_66 () String)
(declare-fun x_67 () String)
(declare-fun literal_68 () String)
(declare-fun x_69 () String)
(declare-fun x_70 () String)
(declare-fun literal_71 () String)
(declare-fun x_72 () String)
(declare-fun x_73 () String)
(declare-fun x_74 () String)
(declare-fun literal_75 () String)
(declare-fun x_76 () String)
(declare-fun x_77 () String)
(declare-fun literal_78 () String)
(declare-fun x_79 () String)
(assert (= literal_13 "\u{3c}\u{62}\u{72}\u{3e}\u{5c}\u{6e}"))
(assert (= x_19 (str.++ sigmaStar_0 literal_13)))
(assert (= literal_14 "\u{3c}\u{62}\u{72}\u{3e}\u{5c}\u{6e}"))
(assert (= x_20 (str.++ sigmaStar_12 literal_14)))
(assert (= literal_18 ""))
(assert (= x_21 (str.++ literal_18 x_20)))
(assert (= literal_15 "\u{3c}\u{62}\u{72}\u{3e}\u{5c}\u{6e}"))
(assert (= x_23 (str.++ sigmaStar_6 literal_15)))
(assert (= literal_16 "\u{3c}\u{62}\u{72}\u{3e}\u{5c}\u{6e}"))
(assert (= x_25 (str.++ sigmaStar_8 literal_16)))
(assert (or (= x_26 x_21) (= x_26 literal_18)))
(assert (= x_27 (str.++ x_26 x_25)))
(assert (= literal_17 "\u{3c}\u{62}\u{72}\u{3e}\u{5c}\u{6e}"))
(assert (= x_28 (str.++ sigmaStar_10 literal_17)))
(assert (or (= x_30 x_21) (= x_30 literal_18) (= x_30 x_27)))
(assert (= x_31 (str.++ x_30 x_28)))
(assert (or (= x_33 x_21) (= x_33 literal_18) (= x_33 x_27)))
(assert (= x_34 (str.++ x_33 x_19)))
(assert (= literal_22 "\u{3c}\u{62}\u{72}\u{3e}\u{5c}\u{6e}"))
(assert (= x_35 (str.++ sigmaStar_1 literal_22)))
(assert (= literal_24 "\u{3c}\u{62}\u{72}\u{3e}\u{5c}\u{6e}"))
(assert (= x_40 (str.++ sigmaStar_11 literal_24)))
(assert (or (= x_39 x_21) (= x_39 x_31) (= x_39 literal_18) (= x_39 x_27) (= x_39 x_34)))
(assert (= x_42 (str.++ x_39 x_23)))
(assert (= literal_43 "\u{3c}\u{62}\u{72}\u{3e}\u{3c}\u{62}\u{72}\u{3e}\u{0d}\u{0a}"))
(assert (or (= x_50 x_21) (= x_50 x_31) (= x_50 x_42) (= x_50 x_40) (= x_50 literal_18) (= x_50 x_27) (= x_50 x_35) (= x_50 x_34)))
(assert (= x_51 (str.++ literal_43 x_50)))
(assert (= literal_52 "\u{3c}\u{62}\u{72}\u{3e}\u{0d}\u{0a}\u{3c}\u{61}\u{20}\u{68}\u{72}\u{65}\u{66}\u{3d}\u{27}\u{6d}\u{65}\u{6d}\u{62}\u{65}\u{72}\u{73}\u{2e}\u{70}\u{68}\u{70}"))
(assert (= x_54 (str.++ x_51 literal_52)))
(assert (= literal_53 "\u{3c}\u{63}\u{65}\u{6e}\u{74}\u{65}\u{72}\u{3e}\u{3c}\u{62}\u{72}\u{3e}\u{0d}\u{0a}"))
(assert (= x_55 (str.++ literal_53 sigmaStar_2)))
(assert (= x_56 (str.++ x_55 x_54)))
(assert (= literal_64 "\u{3f}\u{61}\u{69}\u{64}\u{3d}"))
(assert (= x_65 (str.++ literal_64 sigmaStar_63)))
(assert (or (= x_66 x_65) (= x_66 sigmaStar_9)))
(assert (= x_67 (str.++ x_56 x_66)))
(assert (= literal_68 "\u{27}\u{3e}"))
(assert (= x_69 (str.++ x_67 literal_68)))
(assert (= x_70 (str.++ x_69 sigmaStar_7)))
(assert (= literal_71 "\u{3c}\u{2f}\u{61}\u{3e}\u{3c}\u{62}\u{72}\u{3e}\u{3c}\u{62}\u{72}\u{3e}\u{0d}\u{0a}\u{3c}\u{61}\u{20}\u{68}\u{72}\u{65}\u{66}\u{3d}\u{27}\u{69}\u{6e}\u{64}\u{65}\u{78}\u{2e}\u{70}\u{68}\u{70}"))
(assert (= x_72 (str.++ x_70 literal_71)))
(assert (or (= x_73 x_65) (= x_73 sigmaStar_4)))
(assert (= x_74 (str.++ x_72 x_73)))
(assert (= literal_75 "\u{27}\u{3e}"))
(assert (= x_76 (str.++ x_74 literal_75)))
(assert (= x_77 (str.++ x_76 sigmaStar_5)))
(assert (= literal_78 "\u{3c}\u{2f}\u{61}\u{3e}\u{3c}\u{62}\u{72}\u{3e}\u{3c}\u{62}\u{72}\u{3e}\u{0d}\u{0a}\u{3c}\u{2f}\u{63}\u{65}\u{6e}\u{74}\u{65}\u{72}\u{3e}\u{5c}\u{6e}"))
(assert (= x_79 (str.++ x_77 literal_78)))
(assert (str.in_re x_79 (re.++ (re.* re.allchar) (re.++ (str.to_re "\u{5c}\u{3c}\u{53}\u{43}\u{52}\u{49}\u{50}\u{54}") (re.* re.allchar)))))
(check-sat)
(exit)
